Version identifier: 20.1.0.0 | 2020-11-10 | 9bedb6d68
Tried aggregator 2 times.
MIP Presolve eliminated 851 rows and 464 columns.
MIP Presolve modified 1742 coefficients.
Aggregator did 105 substitutions.
Reduced MIP has 750 rows, 638 columns, and 2389 nonzeros.
Reduced MIP has 202 binaries, 436 generals, 0 SOSs, and 0 indicators.
Presolve time = 0.01 sec. (3.78 ticks)
Found incumbent of value 30.000000 after 0.02 sec. (6.52 ticks)
Probing fixed 20 vars, tightened 163 bounds.
Probing time = 0.00 sec. (0.60 ticks)
Tried aggregator 2 times.
Detecting symmetries...
MIP Presolve eliminated 300 rows and 24 columns.
MIP Presolve modified 58 coefficients.
Aggregator did 3 substitutions.
Reduced MIP has 447 rows, 611 columns, and 1460 nonzeros.
Reduced MIP has 295 binaries, 316 generals, 0 SOSs, and 0 indicators.
Presolve time = 0.00 sec. (2.12 ticks)
Probing time = 0.00 sec. (0.15 ticks)
Clique table members: 41.
MIP emphasis: balance optimality and feasibility.
MIP search method: dynamic search.
Parallel mode: deterministic, using up to 24 threads.
Root relaxation solution time = 0.00 sec. (1.54 ticks)

        Nodes                                         Cuts/
   Node  Left     Objective  IInf  Best Integer    Best Bound    ItCnt     Gap

*     0+    0                           30.0000        0.0000           100.00%
      0     0        0.0000    48       30.0000        0.0000      161  100.00%
*     0+    0                           12.0000        0.0000           100.00%
      0     0        0.3500    74       12.0000     Cuts: 133      362   97.08%
      0     0        1.1000   208       12.0000      Cuts: 86      465   90.83%
      0     0        1.1667   202       12.0000      Cuts: 81      539   90.28%
      0     0        1.2500   214       12.0000      Cuts: 67      599   89.58%
      0     0        2.0000   216       12.0000      Cuts: 53      675   83.33%
      0     0        2.0000   195       12.0000      Cuts: 82      753   83.33%
      0     0        2.0000   188       12.0000      Cuts: 75      798   83.33%
      0     0        2.0000   200       12.0000      Cuts: 50      848   83.33%
*     0+    0                           11.0000        2.0000            81.82%
      0     0        2.0000   182       11.0000      Cuts: 28      918   81.82%
      0     0        2.0000   166       11.0000     Cuts: 105      979   81.82%
      0     0        2.0000   156       11.0000      Cuts: 66     1051   81.82%
*     0+    0                            8.0000        2.0000            75.00%
      0     0        cutoff              8.0000        8.0000     1051    0.00%
Elapsed time = 0.22 sec. (95.03 ticks, tree = 0.01 MB, solutions = 4)

Cover cuts applied:  3
Implied bound cuts applied:  11
Flow cuts applied:  2
Mixed integer rounding cuts applied:  13
Zero-half cuts applied:  142
Gomory fractional cuts applied:  5

Root node processing (before b&c):
  Real time             =    0.22 sec. (95.10 ticks)
Parallel b&c, 24 threads:
  Real time             =    0.00 sec. (0.00 ticks)
  Sync time (average)   =    0.00 sec.
  Wait time (average)   =    0.00 sec.
                          ------------
Total (root+branch&cut) =    0.22 sec. (95.10 ticks)

Solution status = Optimal
Solution LB = 8
Solution UB = 8
Runtime = 0.225765 seconds
	Command being timed: "/home/min/git_repos/CS598MEBProject/CNT-ILP/build/cnt -s 2 ./output/k6_n20/simC_c1_k6_n20_u2_s2_del04.input-left.cnp"
	User time (seconds): 2.39
	System time (seconds): 0.03
	Percent of CPU this job got: 927%
	Elapsed (wall clock) time (h:mm:ss or m:ss): 0:00.26
	Average shared text size (kbytes): 0
	Average unshared data size (kbytes): 0
	Average stack size (kbytes): 0
	Average total size (kbytes): 0
	Maximum resident set size (kbytes): 56920
	Average resident set size (kbytes): 0
	Major (requiring I/O) page faults: 0
	Minor (reclaiming a frame) page faults: 11236
	Voluntary context switches: 2468
	Involuntary context switches: 300
	Swaps: 0
	File system inputs: 0
	File system outputs: 16
	Socket messages sent: 0
	Socket messages received: 0
	Signals delivered: 0
	Page size (bytes): 4096
	Exit status: 0
